c Instancia generada aleatoriamente
p edge 80 652 10
v 6 7 22 37 44 61 73
v 9 26 29 33 38 50 55 62 64 79
v 9 4 16 23 24 36 43 56 59 72
v 8 1 27 30 41 53 66 70 71
v 9 6 9 34 42 47 48 54 63 75
v 7 3 13 20 45 57 65 67
v 9 2 8 11 12 15 32 40 60 77
v 8 19 21 31 58 68 69 74 76
v 7 5 17 18 28 39 78 80
v 8 10 14 25 35 46 49 51 52
e 1 7
e 1 20
e 1 22
e 1 24
e 1 26
e 1 28
e 1 29
e 1 50
e 1 53
e 1 54
e 1 58
e 1 59
e 1 61
e 1 73
e 2 5
e 2 28
e 2 38
e 2 42
e 2 44
e 2 45
e 2 58
e 2 60
e 2 62
e 2 64
e 2 66
e 2 68
e 2 76
e 2 77
e 2 79
e 2 80
e 3 9
e 3 10
e 3 14
e 3 16
e 3 18
e 3 19
e 3 22
e 3 23
e 3 32
e 3 41
e 3 53
e 3 56
e 3 65
e 3 74
e 4 6
e 4 16
e 4 18
e 4 24
e 4 36
e 4 40
e 4 41
e 4 50
e 4 52
e 4 55
e 4 61
e 4 77
e 5 10
e 5 13
e 5 18
e 5 21
e 5 22
e 5 36
e 5 37
e 5 38
e 5 43
e 5 51
e 5 67
e 5 69
e 5 73
e 5 76
e 6 9
e 6 10
e 6 15
e 6 16
e 6 17
e 6 22
e 6 31
e 6 38
e 6 39
e 6 41
e 6 51
e 6 58
e 6 60
e 6 71
e 6 73
e 7 14
e 7 25
e 7 26
e 7 27
e 7 29
e 7 33
e 7 34
e 7 39
e 7 46
e 7 47
e 7 52
e 8 10
e 8 20
e 8 22
e 8 27
e 8 30
e 8 35
e 8 39
e 8 47
e 8 48
e 8 71
e 9 13
e 9 21
e 9 23
e 9 28
e 9 32
e 9 34
e 9 40
e 9 46
e 9 55
e 9 60
e 9 62
e 9 65
e 9 66
e 9 69
e 9 70
e 9 71
e 9 75
e 9 77
e 10 15
e 10 16
e 10 22
e 10 31
e 10 41
e 10 43
e 10 44
e 10 45
e 10 47
e 10 49
e 10 52
e 10 57
e 10 69
e 11 17
e 11 27
e 11 37
e 11 38
e 11 39
e 11 46
e 11 47
e 11 50
e 11 51
e 11 55
e 11 58
e 11 62
e 11 67
e 11 70
e 11 74
e 11 77
e 11 80
e 12 22
e 12 23
e 12 25
e 12 27
e 12 36
e 12 37
e 12 42
e 12 45
e 12 47
e 12 49
e 12 55
e 12 56
e 12 58
e 12 60
e 12 74
e 13 21
e 13 24
e 13 25
e 13 26
e 13 30
e 13 33
e 13 35
e 13 38
e 13 46
e 13 57
e 13 63
e 13 65
e 13 66
e 13 71
e 13 75
e 14 17
e 14 29
e 14 33
e 14 35
e 14 37
e 14 38
e 14 44
e 14 45
e 14 48
e 14 59
e 14 61
e 14 71
e 14 73
e 15 18
e 15 19
e 15 25
e 15 32
e 15 34
e 15 37
e 15 39
e 15 48
e 15 49
e 15 50
e 15 53
e 15 55
e 15 59
e 15 69
e 15 76
e 15 79
e 16 18
e 16 22
e 16 23
e 16 28
e 16 39
e 16 43
e 16 47
e 16 50
e 16 53
e 16 55
e 16 57
e 16 63
e 16 66
e 16 75
e 16 76
e 17 24
e 17 35
e 17 39
e 17 41
e 17 42
e 17 47
e 17 48
e 17 49
e 17 62
e 18 27
e 18 31
e 18 37
e 18 41
e 18 46
e 18 47
e 18 53
e 18 54
e 18 55
e 18 66
e 18 67
e 18 73
e 19 20
e 19 21
e 19 22
e 19 24
e 19 26
e 19 35
e 19 42
e 19 43
e 19 44
e 19 46
e 19 47
e 19 48
e 19 53
e 19 61
e 19 62
e 19 70
e 19 75
e 19 78
e 19 79
e 20 21
e 20 23
e 20 40
e 20 43
e 20 44
e 20 46
e 20 49
e 20 50
e 20 60
e 20 65
e 20 66
e 20 79
e 21 24
e 21 28
e 21 29
e 21 32
e 21 36
e 21 47
e 21 54
e 21 64
e 21 67
e 21 70
e 21 80
e 22 23
e 22 34
e 22 35
e 22 36
e 22 38
e 22 39
e 22 49
e 22 52
e 22 56
e 22 60
e 22 71
e 22 72
e 22 73
e 23 39
e 23 60
e 23 61
e 23 62
e 23 75
e 23 79
e 23 80
e 24 30
e 24 32
e 24 35
e 24 43
e 24 45
e 24 46
e 24 48
e 24 52
e 24 55
e 24 64
e 24 72
e 24 73
e 24 80
e 25 27
e 25 28
e 25 29
e 25 31
e 25 36
e 25 44
e 25 45
e 25 57
e 25 60
e 25 68
e 25 71
e 25 72
e 25 78
e 25 79
e 26 28
e 26 35
e 26 37
e 26 40
e 26 44
e 26 52
e 26 58
e 26 72
e 26 73
e 26 75
e 26 77
e 27 32
e 27 33
e 27 35
e 27 36
e 27 43
e 27 53
e 27 69
e 27 73
e 27 75
e 27 78
e 28 29
e 28 32
e 28 33
e 28 37
e 28 45
e 28 47
e 28 51
e 28 55
e 28 62
e 28 69
e 28 75
e 28 77
e 29 30
e 29 31
e 29 38
e 29 39
e 29 42
e 29 56
e 29 62
e 29 63
e 29 68
e 29 73
e 29 74
e 29 75
e 29 79
e 29 80
e 30 36
e 30 46
e 30 49
e 30 51
e 30 56
e 30 57
e 30 58
e 30 60
e 30 61
e 30 63
e 30 65
e 30 79
e 31 33
e 31 34
e 31 38
e 31 44
e 31 47
e 31 50
e 31 54
e 31 56
e 31 58
e 31 61
e 31 62
e 31 65
e 31 70
e 31 78
e 32 38
e 32 41
e 32 46
e 32 49
e 32 50
e 32 52
e 32 56
e 32 57
e 32 61
e 32 67
e 32 70
e 32 71
e 32 75
e 32 76
e 33 35
e 33 37
e 33 40
e 33 41
e 33 50
e 33 51
e 33 54
e 33 58
e 33 65
e 33 68
e 33 73
e 33 74
e 34 35
e 34 42
e 34 57
e 34 64
e 34 68
e 34 70
e 34 72
e 34 73
e 34 76
e 34 77
e 34 78
e 35 42
e 35 44
e 35 50
e 35 55
e 35 60
e 35 63
e 35 65
e 35 72
e 35 76
e 35 78
e 36 37
e 36 38
e 36 39
e 36 46
e 36 51
e 36 52
e 36 59
e 36 63
e 36 75
e 37 43
e 37 47
e 37 53
e 37 58
e 37 60
e 37 70
e 37 75
e 37 78
e 38 41
e 38 56
e 38 59
e 38 73
e 38 79
e 39 45
e 39 55
e 39 67
e 39 72
e 39 78
e 40 43
e 40 46
e 40 47
e 40 49
e 40 68
e 40 70
e 40 71
e 40 72
e 40 74
e 40 76
e 41 42
e 41 43
e 41 76
e 42 44
e 42 50
e 42 56
e 42 66
e 42 80
e 43 49
e 43 50
e 43 67
e 43 73
e 43 74
e 43 75
e 43 78
e 44 45
e 44 49
e 44 54
e 44 64
e 44 68
e 44 77
e 44 80
e 45 46
e 45 53
e 45 69
e 45 70
e 45 73
e 45 74
e 45 80
e 46 64
e 46 66
e 46 67
e 46 69
e 46 74
e 46 75
e 46 77
e 47 51
e 47 53
e 47 62
e 47 65
e 47 71
e 47 77
e 48 56
e 48 57
e 48 59
e 48 62
e 48 67
e 48 68
e 48 70
e 48 80
e 49 54
e 49 57
e 49 61
e 49 66
e 49 71
e 49 72
e 49 75
e 49 80
e 50 51
e 50 55
e 50 59
e 50 63
e 50 65
e 50 70
e 50 72
e 50 80
e 51 54
e 51 56
e 51 57
e 51 63
e 51 64
e 51 67
e 51 70
e 51 72
e 52 61
e 52 66
e 52 70
e 52 73
e 52 76
e 53 56
e 53 57
e 53 59
e 53 64
e 53 78
e 54 57
e 54 58
e 54 60
e 54 62
e 54 69
e 54 72
e 54 75
e 54 79
e 55 60
e 55 62
e 55 63
e 55 65
e 55 67
e 55 68
e 56 58
e 56 60
e 56 62
e 56 78
e 57 58
e 57 63
e 57 65
e 57 68
e 57 73
e 57 74
e 57 75
e 57 80
e 58 59
e 58 60
e 58 69
e 58 78
e 59 78
e 59 79
e 60 63
e 60 68
e 60 72
e 60 75
e 60 79
e 61 63
e 61 68
e 61 75
e 62 74
e 62 75
e 62 77
e 63 69
e 63 71
e 63 72
e 63 80
e 64 68
e 64 79
e 65 66
e 66 67
e 66 70
e 66 71
e 66 77
e 66 78
e 67 68
e 67 79
e 68 72
e 68 74
e 68 77
e 69 70
e 69 73
e 69 76
e 70 77
e 70 78
e 72 73
e 72 79
e 72 80
e 73 77
e 74 77
e 75 79
e 75 80
e 77 80
